************************************************************************
file with basedata            : cr152_.bas
initial value random generator: 903385861
************************************************************************
projects                      :  1
jobs (incl. supersource/sink ):  18
horizon                       :  132
RESOURCES
  - renewable                 :  1   R
  - nonrenewable              :  2   N
  - doubly constrained        :  0   D
************************************************************************
PROJECT INFORMATION:
pronr.  #jobs rel.date duedate tardcost  MPM-Time
    1     16      0       23        9       23
************************************************************************
PRECEDENCE RELATIONS:
jobnr.    #modes  #successors   successors
   1        1          3           2   3   4
   2        3          3           6   7  16
   3        3          1           7
   4        3          3           5   6   8
   5        3          2          10  14
   6        3          3           9  11  13
   7        3          3           9  11  13
   8        3          3          10  12  13
   9        3          2          15  17
  10        3          1          16
  11        3          2          14  17
  12        3          2          16  17
  13        3          1          14
  14        3          1          15
  15        3          1          18
  16        3          1          18
  17        3          1          18
  18        1          0        
************************************************************************
REQUESTS/DURATIONS:
jobnr. mode duration  R 1  N 1  N 2
------------------------------------------------------------------------
  1      1     0       0    0    0
  2      1     5       4    7    8
         2     6       3    7    6
         3     8       0    6    5
  3      1     5       0    7    6
         2     7       9    6    5
         3     9       8    4    2
  4      1     2       9    7    8
         2     3       0    7    8
         3     6       0    4    7
  5      1     1       8    6    7
         2     3       8    6    6
         3     5       0    4    5
  6      1     5       8   10   10
         2     9       4    9    9
         3    10       0    9    9
  7      1     2       7    9    8
         2     8       7    9    7
         3     9       7    8    5
  8      1     4       9    3    6
         2     6       8    3    5
         3     7       7    3    3
  9      1     2       0    3    6
         2     4       0    2    6
         3    10       0    1    6
 10      1     3       2    5    7
         2     4       0    4    6
         3     7       0    2    5
 11      1     7       8    8    5
         2     7       0    7    7
         3    10       9    6    4
 12      1     1       0    5    6
         2     2       3    5    5
         3     5       3    4    4
 13      1     5       0    8    9
         2     7       0    6    6
         3     9       0    6    5
 14      1     4       4    1    5
         2     7       0    1    5
         3    10       0    1    3
 15      1     2       0    5    4
         2     7       0    4    4
         3     8       0    3    2
 16      1     3       6    7    9
         2     9       0    7    7
         3     9       0    5    8
 17      1     4       3    8    7
         2     9       3    7    7
         3    10       0    6    6
 18      1     0       0    0    0
************************************************************************
RESOURCEAVAILABILITIES:
  R 1  N 1  N 2
   30   92  104
************************************************************************
